c Generated map
c Size: 8 * 8, weights in range: 1 to 10, walls: True, with ratio 0.1
c dim 7 of 10
c
p sp 64 90
c graph contains 64 nodes and 90 arcs
c
a 1 9 10
a 9 1 10
a 1 2 3
a 2 1 3
a 2 10 7
a 10 2 7
a 2 3 2
a 3 2 2
a 3 11 2
a 11 3 2
a 3 4 4
a 4 3 4
a 4 12 2
a 12 4 2
a 4 5 5
a 5 4 5
a 5 13 5
a 13 5 5
a 5 6 2
a 6 5 2
a 6 14 2
a 14 6 2
a 6 7 6
a 7 6 6
a 7 15 7
a 15 7 7
a 7 8 10
a 8 7 10
a 8 16 6
a 16 8 6
a 9 17 7
a 17 9 7
a 9 10 9
a 10 9 9
a 10 18 1
a 18 10 1
a 10 11 4
a 11 10 4
a 11 19 1
a 19 11 1
a 11 12 6
a 12 11 6
a 12 20 9
a 20 12 9
a 12 13 10
a 13 12 10
a 13 21 6
a 21 13 6
a 13 14 10
a 14 13 10
a 14 22 2
a 22 14 2
a 14 15 3
a 15 14 3
a 15 16 7
a 16 15 7
a 16 24 5
a 24 16 5
a 17 25 3
a 25 17 3
a 17 18 6
a 18 17 6
a 18 19 9
a 19 18 9
a 19 27 6
a 27 19 6
a 19 20 5
a 20 19 5
a 20 28 6
a 28 20 6
a 20 21 7
a 21 20 7
a 21 29 7
a 29 21 7
a 21 22 3
a 22 21 3
a 22 30 6
a 30 22 6
a 24 32 10
a 32 24 10
a 25 33 5
a 33 25 5
a 27 35 6
a 35 27 6
a 27 28 9
a 28 27 9
a 28 36 9
a 36 28 9
a 28 29 3
a 29 28 3
a 29 37 4
a 37 29 4
a 29 30 8
a 30 29 8
a 30 38 4
a 38 30 4
a 30 31 8
a 31 30 8
a 31 39 2
a 39 31 2
a 31 32 2
a 32 31 2
a 32 40 9
a 40 32 9
a 33 41 8
a 41 33 8
a 33 34 10
a 34 33 10
a 34 42 2
a 42 34 2
a 34 35 4
a 35 34 4
a 35 43 1
a 43 35 1
a 35 36 5
a 36 35 5
a 36 44 4
a 44 36 4
a 36 37 5
a 37 36 5
a 37 38 2
a 38 37 2
a 38 46 8
a 46 38 8
a 38 39 4
a 39 38 4
a 39 47 5
a 47 39 5
a 39 40 5
a 40 39 5
a 40 48 9
a 48 40 9
a 41 49 5
a 49 41 5
a 41 42 1
a 42 41 1
a 42 43 5
a 43 42 5
a 43 44 10
a 44 43 10
a 44 52 3
a 52 44 3
a 46 54 5
a 54 46 5
a 46 47 7
a 47 46 7
a 47 55 5
a 55 47 5
a 47 48 8
a 48 47 8
a 48 56 7
a 56 48 7
a 49 57 3
a 57 49 3
a 52 60 4
a 60 52 4
a 52 53 7
a 53 52 7
a 53 61 2
a 61 53 2
a 53 54 9
a 54 53 9
a 54 55 5
a 55 54 5
a 55 63 9
a 63 55 9
a 55 56 10
a 56 55 10
a 56 64 7
a 64 56 7
a 57 58 6
a 58 57 6
a 58 59 5
a 59 58 5
a 59 60 10
a 60 59 10
a 60 61 5
a 61 60 5
a 63 64 5
a 64 63 5
